certificates/rado_a10_c106_N27.cnf
c Rad2 upper bound instance: x1 + 10*x2 - x3 = 106, interval [1,27]
p cnf 27 144
1 5 11 0
-1 -5 -11 0
1 12 15 0
-1 -12 -15 0
1 13 25 0
-1 -13 -25 0
2 6 11 0
-2 -6 -11 0
2 12 16 0
-2 -12 -16 0
2 13 26 0
-2 -13 -26 0
3 7 11 0
-3 -7 -11 0
3 12 17 0
-3 -12 -17 0
3 13 27 0
-3 -13 -27 0
4 8 11 0
-4 -8 -11 0
4 12 18 0
-4 -12 -18 0
5 9 11 0
-5 -9 -11 0
5 12 19 0
-5 -12 -19 0
6 10 11 0
-6 -10 -11 0
6 12 20 0
-6 -12 -20 0
1 7 10 0
-1 -7 -10 0
7 11 0
-7 -11 0
7 12 21 0
-7 -12 -21 0
2 8 10 0
-2 -8 -10 0
8 11 12 0
-8 -11 -12 0
8 12 22 0
-8 -12 -22 0
3 9 10 0
-3 -9 -10 0
9 11 13 0
-9 -11 -13 0
9 12 23 0
-9 -12 -23 0
4 10 0
-4 -10 0
10 11 14 0
-10 -11 -14 0
10 12 24 0
-10 -12 -24 0
5 10 11 0
-5 -10 -11 0
11 15 0
-11 -15 0
11 12 25 0
-11 -12 -25 0
6 10 12 0
-6 -10 -12 0
11 12 16 0
-11 -12 -16 0
12 26 0
-12 -26 0
7 10 13 0
-7 -10 -13 0
11 13 17 0
-11 -13 -17 0
12 13 27 0
-12 -13 -27 0
8 10 14 0
-8 -10 -14 0
11 14 18 0
-11 -14 -18 0
9 10 15 0
-9 -10 -15 0
11 15 19 0
-11 -15 -19 0
10 16 0
-10 -16 0
11 16 20 0
-11 -16 -20 0
1 9 17 0
-1 -9 -17 0
10 11 17 0
-10 -11 -17 0
11 17 21 0
-11 -17 -21 0
2 9 18 0
-2 -9 -18 0
10 12 18 0
-10 -12 -18 0
11 18 22 0
-11 -18 -22 0
3 9 19 0
-3 -9 -19 0
10 13 19 0
-10 -13 -19 0
11 19 23 0
-11 -19 -23 0
4 9 20 0
-4 -9 -20 0
10 14 20 0
-10 -14 -20 0
11 20 24 0
-11 -20 -24 0
5 9 21 0
-5 -9 -21 0
10 15 21 0
-10 -15 -21 0
11 21 25 0
-11 -21 -25 0
6 9 22 0
-6 -9 -22 0
10 16 22 0
-10 -16 -22 0
11 22 26 0
-11 -22 -26 0
7 9 23 0
-7 -9 -23 0
10 17 23 0
-10 -17 -23 0
11 23 27 0
-11 -23 -27 0
8 9 24 0
-8 -9 -24 0
10 18 24 0
-10 -18 -24 0
9 25 0
-9 -25 0
10 19 25 0
-10 -19 -25 0
9 10 26 0
-9 -10 -26 0
10 20 26 0
-10 -20 -26 0
1 8 27 0
-1 -8 -27 0
9 11 27 0
-9 -11 -27 0
10 21 27 0
-10 -21 -27 0
