certificates/rado_a10_c106_N27.drat
9 12 -27 0
12 -27 0
d 9 12 -27 0
-27 0
-11 -9 0
25 0
-9 0
11 0
-7 0
-15 0
-12 0
-21 0
0
